; DUP1 SLOAD PUSH cw_2 DUP1 SWAP2 => PUSH cw_2 DUP1 DUP3 SLOAD
(set-option :produce-proofs true)
; 
(set-info :status unknown)
(declare-fun storage_t ((_ BitVec 256) (_ BitVec 256) (_ BitVec 256) Int (_ BitVec 256)) (_ BitVec 256))
(declare-fun w_2 () (_ BitVec 256))
(declare-fun storage_s ((_ BitVec 256) (_ BitVec 256) (_ BitVec 256) Int (_ BitVec 256)) (_ BitVec 256))
(declare-fun exc_halt_t (Int) Bool)
(declare-fun exc_halt_s (Int) Bool)
(declare-fun sc_t (Int) (_ BitVec 6))
(declare-fun stack_t ((_ BitVec 256) (_ BitVec 256) (_ BitVec 256) Int (_ BitVec 6)) (_ BitVec 256))
(declare-fun stack_s ((_ BitVec 256) (_ BitVec 256) (_ BitVec 256) Int (_ BitVec 6)) (_ BitVec 256))
(declare-fun sc_s (Int) (_ BitVec 6))
(declare-fun used_gas_t ((_ BitVec 256) (_ BitVec 256) (_ BitVec 256) Int) Int)
(declare-fun used_gas_s ((_ BitVec 256) (_ BitVec 256) (_ BitVec 256) Int) Int)
(assert
 (exists ((x_0 (_ BitVec 256)) (x_SLOAD_0 (_ BitVec 256)) )(let (($x4415 (forall ((w (_ BitVec 256)) )(let ((?x4435 (storage_t x_0 x_SLOAD_0 w_2 4 w)))
 (let ((?x1704 (storage_s x_0 x_SLOAD_0 w_2 5 w)))
 (= ?x1704 ?x4435))))
 ))
 (let (($x3723 (exc_halt_t 4)))
 (let (($x3979 (exc_halt_s 5)))
 (let (($x7567 (= $x3979 $x3723)))
 (let (($x2086 (forall ((n (_ BitVec 6)) )(let ((?x3757 (sc_t 4)))
 (let (($x9074 (bvsle ?x3757 n)))
 (let ((?x830 (stack_t x_0 x_SLOAD_0 w_2 4 n)))
 (let ((?x10345 (stack_s x_0 x_SLOAD_0 w_2 5 n)))
 (let (($x4789 (= ?x10345 ?x830)))
 (or $x4789 $x9074)))))))
 ))
 (let ((?x3757 (sc_t 4)))
 (let ((?x805 (sc_s 5)))
 (let (($x9143 (= ?x805 ?x3757)))
 (let ((?x731 (used_gas_t x_0 x_SLOAD_0 w_2 0)))
 (let ((?x728 (used_gas_s x_0 x_SLOAD_0 w_2 0)))
 (let (($x1192 (= ?x728 ?x731)))
 (let (($x7221 (forall ((w (_ BitVec 256)) )(let ((?x1215 (storage_t x_0 x_SLOAD_0 w_2 0 w)))
 (let ((?x1580 (storage_s x_0 x_SLOAD_0 w_2 0 w)))
 (= ?x1580 ?x1215))))
 ))
 (let (($x56 (exc_halt_t 0)))
 (let (($x57 (exc_halt_s 0)))
 (let (($x58 (= $x57 $x56)))
 (let (($x1689 (forall ((n (_ BitVec 6)) )(let ((?x63 (sc_t 0)))
 (let (($x8037 (bvsle ?x63 n)))
 (let ((?x7469 (stack_t x_0 x_SLOAD_0 w_2 0 n)))
 (let ((?x5348 (stack_s x_0 x_SLOAD_0 w_2 0 n)))
 (let (($x938 (= ?x5348 ?x7469)))
 (or $x938 $x8037)))))))
 ))
 (let ((?x63 (sc_t 0)))
 (let ((?x72 (sc_s 0)))
 (let (($x73 (= ?x72 ?x63)))
 (let (($x637 (= $x3723 (or (exc_halt_t 3) (not (bvsle (_ bv0 6) (bvadd (_ bv63 6) (sc_t 3))))))))
 (let (($x4898 (forall ((w (_ BitVec 256)) )(let ((?x6155 (storage_t x_0 x_SLOAD_0 w_2 3 w)))
 (let ((?x4435 (storage_t x_0 x_SLOAD_0 w_2 4 w)))
 (= ?x4435 ?x6155))))
 ))
 (let (($x4835 (forall ((n (_ BitVec 6)) )(let ((?x2126 (stack_t x_0 x_SLOAD_0 w_2 3 n)))
 (let ((?x830 (stack_t x_0 x_SLOAD_0 w_2 4 n)))
 (or (= ?x830 ?x2126) (bvsle (bvadd (_ bv63 6) (sc_t 3)) n)))))
 ))
 (let ((?x2012 (sc_t 3)))
 (let (($x5385 (= ?x3757 ?x2012)))
 (let (($x9425 (= (used_gas_t x_0 x_SLOAD_0 w_2 4) (+ 200 (used_gas_t x_0 x_SLOAD_0 w_2 3)))))
 (let ((?x8856 (bvadd (_ bv63 6) ?x2012)))
 (let ((?x479 (stack_t x_0 x_SLOAD_0 w_2 3 ?x8856)))
 (let (($x4667 (= (stack_t x_0 x_SLOAD_0 w_2 4 (bvadd (_ bv63 6) ?x3757)) (storage_t x_0 x_SLOAD_0 w_2 3 ?x479))))
 (let (($x5358 (not (= ((_ extract 6 6) (bvadd (_ bv1 7) (concat (_ bv0 1) (sc_t 2)))) (_ bv0 1)))))
 (let (($x903 (exc_halt_t 2)))
 (let (($x10336 (exc_halt_t 3)))
 (let (($x1800 (forall ((w (_ BitVec 256)) )(let ((?x4803 (storage_t x_0 x_SLOAD_0 w_2 2 w)))
 (let ((?x6155 (storage_t x_0 x_SLOAD_0 w_2 3 w)))
 (= ?x6155 ?x4803))))
 ))
 (let (($x8795 (forall ((n (_ BitVec 6)) )(let ((?x3582 (stack_t x_0 x_SLOAD_0 w_2 2 n)))
 (let ((?x2126 (stack_t x_0 x_SLOAD_0 w_2 3 n)))
 (or (bvsle (bvadd (_ bv61 6) (sc_t 2)) n) (= ?x2126 ?x3582)))))
 ))
 (let (($x1410 (= ?x2012 (bvadd (_ bv1 6) (sc_t 2)))))
 (let ((?x5735 (used_gas_t x_0 x_SLOAD_0 w_2 3)))
 (let ((?x4056 (sc_t 2)))
 (let ((?x6079 (bvadd (_ bv63 6) ?x4056)))
 (let ((?x722 (stack_t x_0 x_SLOAD_0 w_2 2 ?x6079)))
 (let (($x1280 (= (stack_t x_0 x_SLOAD_0 w_2 3 (bvadd (_ bv62 6) ?x4056)) (stack_t x_0 x_SLOAD_0 w_2 2 (bvadd (_ bv62 6) ?x4056)))))
 (let ((?x7776 (bvadd (_ bv61 6) ?x4056)))
 (let ((?x4410 (stack_t x_0 x_SLOAD_0 w_2 2 ?x7776)))
 (let (($x8975 (not (bvsle (_ bv0 6) (bvadd (_ bv63 6) (sc_t 1))))))
 (let (($x7962 (not (= ((_ extract 6 6) (bvadd (_ bv1 7) (concat (_ bv0 1) (sc_t 1)))) (_ bv0 1)))))
 (let (($x1920 (exc_halt_t 1)))
 (let (($x8780 (= $x903 (or $x1920 $x7962 $x8975))))
 (let (($x1896 (forall ((w (_ BitVec 256)) )(let ((?x4890 (storage_t x_0 x_SLOAD_0 w_2 1 w)))
 (let ((?x4803 (storage_t x_0 x_SLOAD_0 w_2 2 w)))
 (= ?x4803 ?x4890))))
 ))
 (let (($x417 (forall ((n (_ BitVec 6)) )(let ((?x4023 (sc_t 1)))
 (let ((?x6622 (bvadd (_ bv63 6) ?x4023)))
 (let (($x5230 (bvsle ?x6622 n)))
 (let ((?x2840 (stack_t x_0 x_SLOAD_0 w_2 1 n)))
 (let ((?x3582 (stack_t x_0 x_SLOAD_0 w_2 2 n)))
 (or (= ?x3582 ?x2840) $x5230)))))))
 ))
 (let (($x6865 (= ?x4056 (bvadd (_ bv1 6) (sc_t 1)))))
 (let ((?x259 (used_gas_t x_0 x_SLOAD_0 w_2 2)))
 (let ((?x4023 (sc_t 1)))
 (let ((?x6622 (bvadd (_ bv63 6) ?x4023)))
 (let ((?x9517 (stack_t x_0 x_SLOAD_0 w_2 1 ?x6622)))
 (let (($x2108 (= $x1920 (or $x56 (not (= ((_ extract 6 6) (bvadd (_ bv1 7) (concat (_ bv0 1) ?x63))) (_ bv0 1)))))))
 (let (($x8956 (forall ((w (_ BitVec 256)) )(let ((?x1215 (storage_t x_0 x_SLOAD_0 w_2 0 w)))
 (let ((?x4890 (storage_t x_0 x_SLOAD_0 w_2 1 w)))
 (= ?x4890 ?x1215))))
 ))
 (let (($x1091 (forall ((n (_ BitVec 6)) )(let ((?x63 (sc_t 0)))
 (let (($x8037 (bvsle ?x63 n)))
 (let ((?x7469 (stack_t x_0 x_SLOAD_0 w_2 0 n)))
 (let ((?x2840 (stack_t x_0 x_SLOAD_0 w_2 1 n)))
 (or (= ?x2840 ?x7469) $x8037))))))
 ))
 (let (($x2532 (= ?x4023 (bvadd (_ bv1 6) ?x63))))
 (let (($x7222 (= $x3979 (or (exc_halt_s 4) (not (bvsle (_ bv0 6) (bvadd (_ bv61 6) (sc_s 4))))))))
 (let (($x684 (forall ((w (_ BitVec 256)) )(let ((?x646 (storage_s x_0 x_SLOAD_0 w_2 4 w)))
 (let ((?x1704 (storage_s x_0 x_SLOAD_0 w_2 5 w)))
 (= ?x1704 ?x646))))
 ))
 (let (($x1485 (forall ((n (_ BitVec 6)) )(let ((?x4305 (sc_s 4)))
 (let ((?x9805 (bvadd (_ bv61 6) ?x4305)))
 (let (($x10491 (bvsle ?x9805 n)))
 (let ((?x5085 (stack_s x_0 x_SLOAD_0 w_2 4 n)))
 (let ((?x10345 (stack_s x_0 x_SLOAD_0 w_2 5 n)))
 (or (= ?x10345 ?x5085) $x10491)))))))
 ))
 (let ((?x4305 (sc_s 4)))
 (let (($x5571 (= ?x805 ?x4305)))
 (let (($x1073 (= (used_gas_s x_0 x_SLOAD_0 w_2 5) (+ 3 (used_gas_s x_0 x_SLOAD_0 w_2 4)))))
 (let (($x785 (= (stack_s x_0 x_SLOAD_0 w_2 5 (bvadd (_ bv62 6) ?x805)) (stack_s x_0 x_SLOAD_0 w_2 4 (bvadd (_ bv62 6) ?x4305)))))
 (let ((?x697 (bvadd (_ bv63 6) ?x4305)))
 (let ((?x4996 (stack_s x_0 x_SLOAD_0 w_2 4 ?x697)))
 (let (($x1763 (= (stack_s x_0 x_SLOAD_0 w_2 5 (bvadd (_ bv63 6) ?x805)) (stack_s x_0 x_SLOAD_0 w_2 4 (bvadd (_ bv61 6) ?x4305)))))
 (let (($x5243 (not (= ((_ extract 6 6) (bvadd (_ bv1 7) (concat (_ bv0 1) (sc_s 3)))) (_ bv0 1)))))
 (let (($x1358 (not (bvsle (_ bv0 6) (bvadd (_ bv63 6) (sc_s 3))))))
 (let (($x292 (exc_halt_s 3)))
 (let (($x64 (exc_halt_s 4)))
 (let (($x1850 (forall ((w (_ BitVec 256)) )(let ((?x527 (storage_s x_0 x_SLOAD_0 w_2 3 w)))
 (let ((?x646 (storage_s x_0 x_SLOAD_0 w_2 4 w)))
 (= ?x646 ?x527))))
 ))
 (let (($x4376 (forall ((n (_ BitVec 6)) )(let ((?x275 (sc_s 3)))
 (let ((?x1725 (bvadd (_ bv63 6) ?x275)))
 (let (($x7265 (bvsle ?x1725 n)))
 (let ((?x344 (stack_s x_0 x_SLOAD_0 w_2 3 n)))
 (let ((?x5085 (stack_s x_0 x_SLOAD_0 w_2 4 n)))
 (or (= ?x5085 ?x344) $x7265)))))))
 ))
 (let (($x5398 (= ?x4305 (bvadd (_ bv1 6) (sc_s 3)))))
 (let ((?x850 (used_gas_s x_0 x_SLOAD_0 w_2 4)))
 (let ((?x275 (sc_s 3)))
 (let ((?x1725 (bvadd (_ bv63 6) ?x275)))
 (let ((?x2881 (stack_s x_0 x_SLOAD_0 w_2 3 ?x1725)))
 (let (($x7784 (not (= ((_ extract 6 6) (bvadd (_ bv1 7) (concat (_ bv0 1) (sc_s 2)))) (_ bv0 1)))))
 (let (($x247 (exc_halt_s 2)))
 (let (($x5177 (= $x292 (or $x247 $x7784))))
 (let (($x907 (forall ((w (_ BitVec 256)) )(let ((?x4731 (storage_s x_0 x_SLOAD_0 w_2 2 w)))
 (let ((?x527 (storage_s x_0 x_SLOAD_0 w_2 3 w)))
 (= ?x527 ?x4731))))
 ))
 (let (($x4414 (forall ((n (_ BitVec 6)) )(let ((?x4352 (stack_s x_0 x_SLOAD_0 w_2 2 n)))
 (let ((?x344 (stack_s x_0 x_SLOAD_0 w_2 3 n)))
 (let ((?x218 (sc_s 2)))
 (let (($x5973 (bvsle ?x218 n)))
 (or $x5973 (= ?x344 ?x4352)))))))
 ))
 (let (($x5491 (= ?x275 (bvadd (_ bv1 6) (sc_s 2)))))
 (let ((?x837 (used_gas_s x_0 x_SLOAD_0 w_2 3)))
 (let (($x1881 (= $x247 (or (exc_halt_s 1) (not (bvsle (_ bv0 6) (bvadd (_ bv63 6) (sc_s 1))))))))
 (let (($x3108 (forall ((w (_ BitVec 256)) )(let ((?x6485 (storage_s x_0 x_SLOAD_0 w_2 1 w)))
 (let ((?x4731 (storage_s x_0 x_SLOAD_0 w_2 2 w)))
 (= ?x4731 ?x6485))))
 ))
 (let (($x567 (forall ((n (_ BitVec 6)) )(let ((?x154 (sc_s 1)))
 (let ((?x7299 (bvadd (_ bv63 6) ?x154)))
 (let (($x7263 (bvsle ?x7299 n)))
 (let ((?x1117 (stack_s x_0 x_SLOAD_0 w_2 1 n)))
 (let ((?x4352 (stack_s x_0 x_SLOAD_0 w_2 2 n)))
 (or (= ?x4352 ?x1117) $x7263)))))))
 ))
 (let ((?x154 (sc_s 1)))
 (let ((?x218 (sc_s 2)))
 (let (($x1981 (= ?x218 ?x154)))
 (let ((?x27 (used_gas_s x_0 x_SLOAD_0 w_2 2)))
 (let ((?x7299 (bvadd (_ bv63 6) ?x154)))
 (let ((?x5686 (stack_s x_0 x_SLOAD_0 w_2 1 ?x7299)))
 (let (($x4893 (= (stack_s x_0 x_SLOAD_0 w_2 2 (bvadd (_ bv63 6) ?x218)) (storage_s x_0 x_SLOAD_0 w_2 1 ?x5686))))
 (let (($x2924 (not (= ((_ extract 6 6) (bvadd (_ bv1 7) (concat (_ bv0 1) ?x72))) (_ bv0 1)))))
 (let (($x189 (exc_halt_s 1)))
 (let (($x9910 (= $x189 (or $x57 $x2924 (not (bvsle (_ bv0 6) (bvadd (_ bv63 6) ?x72)))))))
 (let (($x674 (forall ((w (_ BitVec 256)) )(let ((?x1580 (storage_s x_0 x_SLOAD_0 w_2 0 w)))
 (let ((?x6485 (storage_s x_0 x_SLOAD_0 w_2 1 w)))
 (= ?x6485 ?x1580))))
 ))
 (let (($x1290 (forall ((n (_ BitVec 6)) )(let ((?x72 (sc_s 0)))
 (let ((?x9906 (bvadd (_ bv63 6) ?x72)))
 (let (($x9889 (bvsle ?x9906 n)))
 (let ((?x5348 (stack_s x_0 x_SLOAD_0 w_2 0 n)))
 (let ((?x1117 (stack_s x_0 x_SLOAD_0 w_2 1 n)))
 (or (= ?x1117 ?x5348) $x9889)))))))
 ))
 (let (($x6201 (= ?x154 (bvadd (_ bv1 6) ?x72))))
 (let ((?x9906 (bvadd (_ bv63 6) ?x72)))
 (let ((?x2132 (stack_s x_0 x_SLOAD_0 w_2 0 ?x9906)))
 (let (($x1209 (forall ((w (_ BitVec 256)) )(let ((?x1075 (ite (= w (stack_s x_0 x_SLOAD_0 w_2 1 (bvadd (_ bv63 6) (sc_s 1)))) x_SLOAD_0 (_ bv0 256))))
 (let ((?x1580 (storage_s x_0 x_SLOAD_0 w_2 0 w)))
 (= ?x1580 ?x1075))))
 ))
 (let (($x7683 (= ?x728 0)))
 (let (($x3899 (not $x57)))
 (let (($x7496 (= (stack_s x_0 x_SLOAD_0 w_2 0 (_ bv0 6)) x_0)))
 (let (($x8685 (= ?x72 (_ bv1 6))))
 (and $x8685 $x7496 $x3899 $x7683 $x1209 (= ?x5686 ?x2132) (= (stack_s x_0 x_SLOAD_0 w_2 1 ?x9906) ?x2132) (= (used_gas_s x_0 x_SLOAD_0 w_2 1) (+ 3 ?x728)) $x6201 $x1290 $x674 $x9910 $x4893 (= ?x27 (+ 200 (used_gas_s x_0 x_SLOAD_0 w_2 1))) $x1981 $x567 $x3108 $x1881 (= (stack_s x_0 x_SLOAD_0 w_2 3 ?x218) w_2) (= ?x837 (+ 3 ?x27)) $x5491 $x4414 $x907 $x5177 (= ?x4996 ?x2881) (= (stack_s x_0 x_SLOAD_0 w_2 4 ?x1725) ?x2881) (= ?x850 (+ 3 ?x837)) $x5398 $x4376 $x1850 (= $x64 (or $x292 $x1358 $x5243)) $x1763 (= (stack_s x_0 x_SLOAD_0 w_2 5 (bvadd (_ bv61 6) ?x805)) ?x4996) $x785 $x1073 $x5571 $x1485 $x684 $x7222 (= (stack_t x_0 x_SLOAD_0 w_2 1 ?x63) w_2) (= (used_gas_t x_0 x_SLOAD_0 w_2 1) (+ 3 ?x731)) $x2532 $x1091 $x8956 $x2108 (= ?x722 ?x9517) (= (stack_t x_0 x_SLOAD_0 w_2 2 ?x6622) ?x9517) (= ?x259 (+ 3 (used_gas_t x_0 x_SLOAD_0 w_2 1))) $x6865 $x417 $x1896 $x8780 (= ?x479 ?x4410) (= (stack_t x_0 x_SLOAD_0 w_2 3 ?x7776) ?x4410) $x1280 (= (stack_t x_0 x_SLOAD_0 w_2 3 ?x6079) ?x722) (= ?x5735 (+ 3 ?x259)) $x1410 $x8795 $x1800 (= $x10336 (or (not (bvsle (_ bv0 6) ?x7776)) $x903 $x5358)) $x4667 $x9425 $x5385 $x4835 $x4898 $x637 $x73 $x1689 $x58 $x7221 $x1192 (not (and $x9143 $x2086 $x7567 $x4415)))))))))))))))))))))))))))))))))))))))))))))))))))))))))))))))))))))))))))))))))))))))))))))))))))))))))))))))
 )
(check-sat)
(get-proof)
